problem_generation/data/GISP/train/er_n=67_m=1323_p=0.60_SET2_setparam=100.00_alpha=0.50_317.lp
maximize
OBJ:100x0 + 100x1 + 100x2 + 100x3 + 100x4 + 100x5 + 100x6 + 100x7 + 100x8 + 100x9 + 100x10 + 100x11 + 100x12 + 100x13 + 100x14 + 100x15 + 100x16 + 100x17 + 100x18 + 100x19 + 100x20 + 100x21 + 100x22 + 100x23 + 100x24 + 100x25 + 100x26 + 100x27 + 100x28 + 100x29 + 100x30 + 100x31 + 100x32 + 100x33 + 100x34 + 100x35 + 100x36 + 100x37 + 100x38 + 100x39 + 100x40 + 100x41 + 100x42 + 100x43 + 100x44 + 100x45 + 100x46 + 100x47 + 100x48 + 100x49 + 100x50 + 100x51 + 100x52 + 100x53 + 100x54 + 100x55 + 100x56 + 100x57 + 100x58 + 100x59 + 100x60 + 100x61 + 100x62 + 100x63 + 100x64 + 100x65 + 100x66 - y55_57 - y36_53 - y26_39 - y7_35 - y18_35 - y5_65 - y0_5 - y6_48 - y29_50 - y40_50 - y48_63 - y6_57 - y21_55 - y10_27 - y33_38 - y33_47 - y25_43 - y10_54 - y44_56 - y25_52 - y14_24 - y22_37 - y22_46 - y15_25 - y18_21 - y17_53 - y47_66 - y9_49 - y5_60 - y17_62 - y21_32 - y29_54 - y25_29 - y33_42 - y10_58 - y51_59 - y2_54 - y32_55 - y22_32 - y14_28 - y32_64 - y13_60 - y3_37 - y14_37 - y28_39 - y36_52 - y47_52 - y55_65 - y9_44 - y28_66 - y6_29 - y29_40 - y40_49 - y40_58 - y2_13 - y10_26 - y62_64 - y25_33 - y12_63 - y51_54 - y2_49 - y32_50 - y3_23 - y43_59 - y1_62 - y35_64 - y16_60 - y36_47 - y5_50 - y6_15 - y9_48 - y5_59 - y58_62 - y9_57 - y21_31 - y40_44 - y6_51 - y10_21 - y39_57 - y2_17 - y31_53 - y31_62 - y32_36 - y13_32 - y24_41 - y3_18 - y16_37 - y32_54 - y1_48 - y24_50 - y43_63 - y24_59 - y1_66 - y5_45 - y9_43 - y50_62 - y61_62 - y8_65 - y20_48 - y10_25 - y12_44 - y39_61 - y54_59 - y62_63 - y12_62 - y24_27 - y35_36 - y43_49 - y16_41 - y35_63 - y17_24 - y46_60 - y57_60 - y17_33 - y28_33 - y5_49 - y58_61 - y42_53 - y50_66 - y10_11 - y2_7 - y39_56 - y23_39 - y39_65 - y12_48 - y23_48 - y4_53 - y16_18 - y1_29 - y35_40 - y43_53 - y1_47 - y5_8 - y35_58 - y16_54 - y5_26 - y17_28 - y7_63 - y8_46 - y42_48 - y11_60 - y31_47 - y4_30 - y12_43 - y4_39 - y12_52 - y1_15 - y31_65 - y13_26 - y24_26 - y53_62 - y34_58 - y24_35 - y13_44 - y37_63 - y1_51 - y46_59 - y57_59 - y9_28 - y18_58 - y6_13 - y27_54 - y11_37 - y8_59 - y30_59 - y39_46 - y23_38 - y31_51 - y4_43 - y12_56 - y1_19 - y23_56 - y4_52 - y16_17 - y34_53 - y24_30 - y53_57 - y3_65 - y14_65 - y38_50 - y5_25 - y7_44 - y46_63 - y26_57 - y38_59 - y26_66 - y19_27 - y8_36 - y19_36 - y27_49 - y8_45 - y30_45 - y0_50 - y60_64 - y41_60 - y23_33 - y4_47 - y37_44 - y16_21 - y34_57 - y1_32 - y3_51 - y37_53 - y22_64 - y14_60 - y15_34 - y15_43 - y15_52 - y7_57 - y19_22 - y0_18 - y7_66 - y30_31 - y0_27 - y11_27 - y63_65 - y27_53 - y11_36 - y11_45 - y41_46 - y11_54 - y12_19 - y41_55 - y31_32 - y33_60 - y23_37 - y4_33 - y1_18 - y37_39 - y22_50 - y53_65 - y14_46 - y45_61 - y56_61 - y15_20 - y14_64 - y38_40 - y7_34 - y26_47 - y7_43 - y26_56 - y0_4 - y7_52 - y27_30 - y18_61 - y27_39 - y11_22 - y19_35 - y30_35 - y0_40 - y11_49 - y41_50 - y44_46 - y33_55 - y4_28 - y44_64 - y1_4 - y2_58 - y1_13 - y3_41 - y45_56 - y3_50 - y14_50 - y7_20 - y26_51 - y18_47 - y8_12 - y0_8 - y11_17 - y48_66 - y63_64 - y0_35 - y33_41 - y41_54 - y52_54 - y10_48 - y33_50 - y41_63 - y25_46 - y52_63 - y10_57 - y22_31 - y2_62 - y25_64 - y34_42 - y3_36 - y14_36 - y37_38 - y37_56 - y15_19 - y3_63 - y26_28 - y7_24 - y26_46 - y17_65 - y28_65 - y7_42 - y48_52 - y29_48 - y21_53 - y21_62 - y33_45 - y44_45 - y2_39 - y44_54 - y10_61 - y33_63 - y44_63 - y2_57 - y34_37 - y2_66 - y22_44 - y3_40 - y7_10 - y47_55 - y15_32 - y47_64 - y28_60 - y18_37 - y9_56 - y0_7 - y21_39 - y29_52 - y48_65 - y6_59 - y29_61 - y40_61 - y10_20 - y41_44 - y25_27 - y10_47 - y25_45 - y10_56 - y2_52 - y3_17 - y22_30 - y14_35 - y36_41 - y55_63 - y18_23 - y59_61 - y17_55 - y9_60 - y21_61 - y10_42 - y25_40 - y3_12 - y32_48 - y43_48 - y3_21 - y14_21 - y24_53 - y3_30 - y1_60 - y13_62 - y24_62 - y16_58 - y17_32 - y36_45 - y5_48 - y28_50 - y9_46 - y5_57 - y9_55 - y5_66 - y21_29 - y6_40 - y29_42 - y2_6 - y39_64 - y25_26 - y54_62 - y10_37 - y12_65 - y51_56 - y24_39 - y3_16 - y32_52 - y43_52 - y13_48 - y16_53 - y24_66 - y16_62 - y17_27 - y9_23 - y36_49 - y9_41 - y17_54 - y6_26 - y9_59 - y50_60 - y21_33 - y42_65 - y2_10 - y31_46 - y2_19 - y2_28 - y20_64 - y2_37 - y13_34 - y1_41 - y1_50 - y35_52 - y13_61 - y24_61 - y17_22 - y16_66 - y5_29 - y17_31 - y5_38 - y9_36 - y17_49 - y9_45 - y58_59 - y6_30 - y42_51 - y61_64 - y6_39 - y42_60 - y11_63 - y20_41 - y20_50 - y2_23 - y4_42 - y4_51 - y13_38 - y32_51 - y24_56 - y46_53 - y9_13 - y46_62 - y28_35 - y5_42 - y28_44 - y9_40 - y42_46 - y27_57 - y19_53 - y42_55 - y27_66 - y8_62 - y19_62 - y42_64 - y0_58 - y11_58 - y12_32 - y20_45 - y31_45 - y39_58 - y12_41 - y54_56 - y23_50 - y12_59 - y32_37 - y43_46 - y34_65 - y13_42 - y5_10 - y1_58 - y5_19 - y17_21 - y9_17 - y46_66 - y27_43 - y8_39 - y19_39 - y19_48 - y42_50 - y42_59 - y11_53 - y19_66 - y20_31 - y30_66 - y23_27 - y31_40 - y4_23 - y23_45 - y1_8 - y23_54 - y4_50 - y1_26 - y24_28 - y53_64 - y13_37 - y5_14 - y5_23 - y57_61 - y26_55 - y38_57 - y27_38 - y8_34 - y19_34 - y0_30 - y30_43 - y42_45 - y30_52 - y27_65 - y8_61 - y19_61 - y20_26 - y30_61 - y0_66 - y11_66 - y23_31 - y23_40 - y1_3 - y4_36 - y1_12 - y45_55 - y34_64 - y14_58 - y37_60 - y5_9 - y38_43 - y9_16 - y49_52 - y46_65 - y7_55 - y18_55 - y27_42 - y0_34 - y19_56 - y0_52 - y20_30 - y4_13 - y12_26 - y41_62 - y44_58 - y4_31 - y23_44 - y1_7 - y25_63 - y4_40 - y45_50 - y37_46 - y16_23 - y37_55 - y22_66 - y15_27 - y26_45 - y7_50 - y8_15 - y18_50 - y0_11 - y18_59 - y7_59 - y19_24 - y0_20 - y11_20 - y19_33 - y0_29 - y40_65 - y19_42 - y11_38 - y60_61 - y12_21 - y41_57 - y52_57 - y44_53 - y12_30 - y10_60 - y25_58 - y34_36 - y1_20 - y3_39 - y45_54 - y14_48 - y37_50 - y45_63 - y3_57 - y3_66 - y15_31 - y18_27 - y59_65 - y26_40 - y7_36 - y7_54 - y0_15 - y18_63 - y29_60 - y0_33 - y11_42 - y41_43 - y10_46 - y44_48 - y33_57 - y10_64 - y44_66 - y25_62 - y3_34 - y3_43 - y14_43 - y45_58 - y14_52 - y15_26 - y55_62 - y7_22 - y18_31 - y17_63 - y0_1 - y11_19 - y30_32 - y6_62 - y11_28 - y29_64 - y21_60 - y40_64 - y63_66 - y4_7 - y10_41 - y25_39 - y10_50 - y33_52 - y52_65 - y2_46 - y2_55 - y14_20 - y25_57 - y22_33 - y25_66 - y22_42 - y22_51 - y37_49
 Subject to
C1: x0+x1-y0_1 <=1 
C2: x0+x3 <=1 
C3: x0+x4-y0_4 <=1 
C4: x0+x5-y0_5 <=1 
C5: x0+x7-y0_7 <=1 
C6: x0+x8-y0_8 <=1 
C7: x0+x9 <=1 
C8: x0+x10 <=1 
C9: x0+x11-y0_11 <=1 
C10: x0+x15-y0_15 <=1 
C11: x0+x16 <=1 
C12: x0+x18-y0_18 <=1 
C13: x0+x19 <=1 
C14: x0+x20-y0_20 <=1 
C15: x0+x21 <=1 
C16: x0+x27-y0_27 <=1 
C17: x0+x28 <=1 
C18: x0+x29-y0_29 <=1 
C19: x0+x30-y0_30 <=1 
C20: x0+x31 <=1 
C21: x0+x33-y0_33 <=1 
C22: x0+x34-y0_34 <=1 
C23: x0+x35-y0_35 <=1 
C24: x0+x36 <=1 
C25: x0+x38 <=1 
C26: x0+x40-y0_40 <=1 
C27: x0+x42 <=1 
C28: x0+x44 <=1 
C29: x0+x49 <=1 
C30: x0+x50-y0_50 <=1 
C31: x0+x52-y0_52 <=1 
C32: x0+x55 <=1 
C33: x0+x58-y0_58 <=1 
C34: x0+x59 <=1 
C35: x0+x61 <=1 
C36: x0+x63 <=1 
C37: x0+x65 <=1 
C38: x0+x66-y0_66 <=1 
C39: x1+x3-y1_3 <=1 
C40: x1+x4-y1_4 <=1 
C41: x1+x7-y1_7 <=1 
C42: x1+x8-y1_8 <=1 
C43: x1+x9 <=1 
C44: x1+x10 <=1 
C45: x1+x12-y1_12 <=1 
C46: x1+x13-y1_13 <=1 
C47: x1+x14 <=1 
C48: x1+x15-y1_15 <=1 
C49: x1+x18-y1_18 <=1 
C50: x1+x19-y1_19 <=1 
C51: x1+x20-y1_20 <=1 
C52: x1+x22 <=1 
C53: x1+x24 <=1 
C54: x1+x26-y1_26 <=1 
C55: x1+x27 <=1 
C56: x1+x29-y1_29 <=1 
C57: x1+x30 <=1 
C58: x1+x32-y1_32 <=1 
C59: x1+x35 <=1 
C60: x1+x36 <=1 
C61: x1+x37 <=1 
C62: x1+x38 <=1 
C63: x1+x39 <=1 
C64: x1+x40 <=1 
C65: x1+x41-y1_41 <=1 
C66: x1+x42 <=1 
C67: x1+x45 <=1 
C68: x1+x47-y1_47 <=1 
C69: x1+x48-y1_48 <=1 
C70: x1+x49 <=1 
C71: x1+x50-y1_50 <=1 
C72: x1+x51-y1_51 <=1 
C73: x1+x52 <=1 
C74: x1+x55 <=1 
C75: x1+x56 <=1 
C76: x1+x58-y1_58 <=1 
C77: x1+x59 <=1 
C78: x1+x60-y1_60 <=1 
C79: x1+x62-y1_62 <=1 
C80: x1+x63 <=1 
C81: x1+x66-y1_66 <=1 
C82: x2+x3 <=1 
C83: x2+x6-y2_6 <=1 
C84: x2+x7-y2_7 <=1 
C85: x2+x10-y2_10 <=1 
C86: x2+x12 <=1 
C87: x2+x13-y2_13 <=1 
C88: x2+x15 <=1 
C89: x2+x17-y2_17 <=1 
C90: x2+x18 <=1 
C91: x2+x19-y2_19 <=1 
C92: x2+x20 <=1 
C93: x2+x23-y2_23 <=1 
C94: x2+x28-y2_28 <=1 
C95: x2+x29 <=1 
C96: x2+x30 <=1 
C97: x2+x35 <=1 
C98: x2+x36 <=1 
C99: x2+x37-y2_37 <=1 
C100: x2+x38 <=1 
C101: x2+x39-y2_39 <=1 
C102: x2+x42 <=1 
C103: x2+x43 <=1 
C104: x2+x46-y2_46 <=1 
C105: x2+x49-y2_49 <=1 
C106: x2+x50 <=1 
C107: x2+x52-y2_52 <=1 
C108: x2+x53 <=1 
C109: x2+x54-y2_54 <=1 
C110: x2+x55-y2_55 <=1 
C111: x2+x56 <=1 
C112: x2+x57-y2_57 <=1 
C113: x2+x58-y2_58 <=1 
C114: x2+x60 <=1 
C115: x2+x62-y2_62 <=1 
C116: x2+x63 <=1 
C117: x2+x66-y2_66 <=1 
C118: x3+x6 <=1 
C119: x3+x12-y3_12 <=1 
C120: x3+x14 <=1 
C121: x3+x15 <=1 
C122: x3+x16-y3_16 <=1 
C123: x3+x17-y3_17 <=1 
C124: x3+x18-y3_18 <=1 
C125: x3+x21-y3_21 <=1 
C126: x3+x23-y3_23 <=1 
C127: x3+x24 <=1 
C128: x3+x30-y3_30 <=1 
C129: x3+x31 <=1 
C130: x3+x32 <=1 
C131: x3+x33 <=1 
C132: x3+x34-y3_34 <=1 
C133: x3+x36-y3_36 <=1 
C134: x3+x37-y3_37 <=1 
C135: x3+x39-y3_39 <=1 
C136: x3+x40-y3_40 <=1 
C137: x3+x41-y3_41 <=1 
C138: x3+x42 <=1 
C139: x3+x43-y3_43 <=1 
C140: x3+x44 <=1 
C141: x3+x46 <=1 
C142: x3+x47 <=1 
C143: x3+x49 <=1 
C144: x3+x50-y3_50 <=1 
C145: x3+x51-y3_51 <=1 
C146: x3+x53 <=1 
C147: x3+x57-y3_57 <=1 
C148: x3+x58 <=1 
C149: x3+x59 <=1 
C150: x3+x63-y3_63 <=1 
C151: x3+x65-y3_65 <=1 
C152: x3+x66-y3_66 <=1 
C153: x4+x5 <=1 
C154: x4+x6 <=1 
C155: x4+x7-y4_7 <=1 
C156: x4+x8 <=1 
C157: x4+x9 <=1 
C158: x4+x12 <=1 
C159: x4+x13-y4_13 <=1 
C160: x4+x15 <=1 
C161: x4+x18 <=1 
C162: x4+x19 <=1 
C163: x4+x21 <=1 
C164: x4+x22 <=1 
C165: x4+x23-y4_23 <=1 
C166: x4+x24 <=1 
C167: x4+x27 <=1 
C168: x4+x28-y4_28 <=1 
C169: x4+x30-y4_30 <=1 
C170: x4+x31-y4_31 <=1 
C171: x4+x32 <=1 
C172: x4+x33-y4_33 <=1 
C173: x4+x34 <=1 
C174: x4+x36-y4_36 <=1 
C175: x4+x37 <=1 
C176: x4+x39-y4_39 <=1 
C177: x4+x40-y4_40 <=1 
C178: x4+x42-y4_42 <=1 
C179: x4+x43-y4_43 <=1 
C180: x4+x46 <=1 
C181: x4+x47-y4_47 <=1 
C182: x4+x49 <=1 
C183: x4+x50-y4_50 <=1 
C184: x4+x51-y4_51 <=1 
C185: x4+x52-y4_52 <=1 
C186: x4+x53-y4_53 <=1 
C187: x4+x54 <=1 
C188: x4+x55 <=1 
C189: x4+x60 <=1 
C190: x4+x61 <=1 
C191: x4+x63 <=1 
C192: x4+x64 <=1 
C193: x4+x65 <=1 
C194: x5+x8-y5_8 <=1 
C195: x5+x9-y5_9 <=1 
C196: x5+x10-y5_10 <=1 
C197: x5+x12 <=1 
C198: x5+x13 <=1 
C199: x5+x14-y5_14 <=1 
C200: x5+x16 <=1 
C201: x5+x17 <=1 
C202: x5+x18 <=1 
C203: x5+x19-y5_19 <=1 
C204: x5+x20 <=1 
C205: x5+x21 <=1 
C206: x5+x23-y5_23 <=1 
C207: x5+x25-y5_25 <=1 
C208: x5+x26-y5_26 <=1 
C209: x5+x29-y5_29 <=1 
C210: x5+x30 <=1 
C211: x5+x31 <=1 
C212: x5+x33 <=1 
C213: x5+x35 <=1 
C214: x5+x38-y5_38 <=1 
C215: x5+x39 <=1 
C216: x5+x41 <=1 
C217: x5+x42-y5_42 <=1 
C218: x5+x44 <=1 
C219: x5+x45-y5_45 <=1 
C220: x5+x47 <=1 
C221: x5+x48-y5_48 <=1 
C222: x5+x49-y5_49 <=1 
C223: x5+x50-y5_50 <=1 
C224: x5+x54 <=1 
C225: x5+x57-y5_57 <=1 
C226: x5+x58 <=1 
C227: x5+x59-y5_59 <=1 
C228: x5+x60-y5_60 <=1 
C229: x5+x61 <=1 
C230: x5+x64 <=1 
C231: x5+x65-y5_65 <=1 
C232: x5+x66-y5_66 <=1 
C233: x6+x7 <=1 
C234: x6+x8 <=1 
C235: x6+x9 <=1 
C236: x6+x12 <=1 
C237: x6+x13-y6_13 <=1 
C238: x6+x14 <=1 
C239: x6+x15-y6_15 <=1 
C240: x6+x18 <=1 
C241: x6+x21 <=1 
C242: x6+x25 <=1 
C243: x6+x26-y6_26 <=1 
C244: x6+x27 <=1 
C245: x6+x28 <=1 
C246: x6+x29-y6_29 <=1 
C247: x6+x30-y6_30 <=1 
C248: x6+x37 <=1 
C249: x6+x39-y6_39 <=1 
C250: x6+x40-y6_40 <=1 
C251: x6+x44 <=1 
C252: x6+x45 <=1 
C253: x6+x48-y6_48 <=1 
C254: x6+x51-y6_51 <=1 
C255: x6+x52 <=1 
C256: x6+x53 <=1 
C257: x6+x54 <=1 
C258: x6+x57-y6_57 <=1 
C259: x6+x58 <=1 
C260: x6+x59-y6_59 <=1 
C261: x6+x60 <=1 
C262: x6+x62-y6_62 <=1 
C263: x6+x63 <=1 
C264: x6+x65 <=1 
C265: x6+x66 <=1 
C266: x7+x8 <=1 
C267: x7+x9 <=1 
C268: x7+x10-y7_10 <=1 
C269: x7+x12 <=1 
C270: x7+x15 <=1 
C271: x7+x17 <=1 
C272: x7+x19 <=1 
C273: x7+x20-y7_20 <=1 
C274: x7+x21 <=1 
C275: x7+x22-y7_22 <=1 
C276: x7+x23 <=1 
C277: x7+x24-y7_24 <=1 
C278: x7+x26 <=1 
C279: x7+x27 <=1 
C280: x7+x28 <=1 
C281: x7+x33 <=1 
C282: x7+x34-y7_34 <=1 
C283: x7+x35-y7_35 <=1 
C284: x7+x36-y7_36 <=1 
C285: x7+x38 <=1 
C286: x7+x40 <=1 
C287: x7+x42-y7_42 <=1 
C288: x7+x43-y7_43 <=1 
C289: x7+x44-y7_44 <=1 
C290: x7+x45 <=1 
C291: x7+x46 <=1 
C292: x7+x49 <=1 
C293: x7+x50-y7_50 <=1 
C294: x7+x51 <=1 
C295: x7+x52-y7_52 <=1 
C296: x7+x54-y7_54 <=1 
C297: x7+x55-y7_55 <=1 
C298: x7+x56 <=1 
C299: x7+x57-y7_57 <=1 
C300: x7+x59-y7_59 <=1 
C301: x7+x61 <=1 
C302: x7+x62 <=1 
C303: x7+x63-y7_63 <=1 
C304: x7+x64 <=1 
C305: x7+x66-y7_66 <=1 
C306: x8+x12-y8_12 <=1 
C307: x8+x13 <=1 
C308: x8+x14 <=1 
C309: x8+x15-y8_15 <=1 
C310: x8+x18 <=1 
C311: x8+x23 <=1 
C312: x8+x27 <=1 
C313: x8+x29 <=1 
C314: x8+x34-y8_34 <=1 
C315: x8+x35 <=1 
C316: x8+x36-y8_36 <=1 
C317: x8+x37 <=1 
C318: x8+x38 <=1 
C319: x8+x39-y8_39 <=1 
C320: x8+x41 <=1 
C321: x8+x42 <=1 
C322: x8+x43 <=1 
C323: x8+x44 <=1 
C324: x8+x45-y8_45 <=1 
C325: x8+x46-y8_46 <=1 
C326: x8+x47 <=1 
C327: x8+x48 <=1 
C328: x8+x49 <=1 
C329: x8+x50 <=1 
C330: x8+x51 <=1 
C331: x8+x54 <=1 
C332: x8+x56 <=1 
C333: x8+x57 <=1 
C334: x8+x59-y8_59 <=1 
C335: x8+x61-y8_61 <=1 
C336: x8+x62-y8_62 <=1 
C337: x8+x64 <=1 
C338: x8+x65-y8_65 <=1 
C339: x8+x66 <=1 
C340: x9+x13-y9_13 <=1 
C341: x9+x14 <=1 
C342: x9+x16-y9_16 <=1 
C343: x9+x17-y9_17 <=1 
C344: x9+x20 <=1 
C345: x9+x23-y9_23 <=1 
C346: x9+x24 <=1 
C347: x9+x25 <=1 
C348: x9+x26 <=1 
C349: x9+x27 <=1 
C350: x9+x28-y9_28 <=1 
C351: x9+x29 <=1 
C352: x9+x33 <=1 
C353: x9+x34 <=1 
C354: x9+x35 <=1 
C355: x9+x36-y9_36 <=1 
C356: x9+x37 <=1 
C357: x9+x38 <=1 
C358: x9+x40-y9_40 <=1 
C359: x9+x41-y9_41 <=1 
C360: x9+x42 <=1 
C361: x9+x43-y9_43 <=1 
C362: x9+x44-y9_44 <=1 
C363: x9+x45-y9_45 <=1 
C364: x9+x46-y9_46 <=1 
C365: x9+x48-y9_48 <=1 
C366: x9+x49-y9_49 <=1 
C367: x9+x54 <=1 
C368: x9+x55-y9_55 <=1 
C369: x9+x56-y9_56 <=1 
C370: x9+x57-y9_57 <=1 
C371: x9+x59-y9_59 <=1 
C372: x9+x60-y9_60 <=1 
C373: x9+x61 <=1 
C374: x9+x63 <=1 
C375: x9+x64 <=1 
C376: x9+x65 <=1 
C377: x9+x66 <=1 
C378: x10+x11-y10_11 <=1 
C379: x10+x15 <=1 
C380: x10+x16 <=1 
C381: x10+x17 <=1 
C382: x10+x20-y10_20 <=1 
C383: x10+x21-y10_21 <=1 
C384: x10+x24 <=1 
C385: x10+x25-y10_25 <=1 
C386: x10+x26-y10_26 <=1 
C387: x10+x27-y10_27 <=1 
C388: x10+x29 <=1 
C389: x10+x30 <=1 
C390: x10+x31 <=1 
C391: x10+x32 <=1 
C392: x10+x34 <=1 
C393: x10+x37-y10_37 <=1 
C394: x10+x38 <=1 
C395: x10+x41-y10_41 <=1 
C396: x10+x42-y10_42 <=1 
C397: x10+x43 <=1 
C398: x10+x46-y10_46 <=1 
C399: x10+x47-y10_47 <=1 
C400: x10+x48-y10_48 <=1 
C401: x10+x50-y10_50 <=1 
C402: x10+x53 <=1 
C403: x10+x54-y10_54 <=1 
C404: x10+x56-y10_56 <=1 
C405: x10+x57-y10_57 <=1 
C406: x10+x58-y10_58 <=1 
C407: x10+x60-y10_60 <=1 
C408: x10+x61-y10_61 <=1 
C409: x10+x62 <=1 
C410: x10+x63 <=1 
C411: x10+x64-y10_64 <=1 
C412: x10+x65 <=1 
C413: x11+x13 <=1 
C414: x11+x17-y11_17 <=1 
C415: x11+x19-y11_19 <=1 
C416: x11+x20-y11_20 <=1 
C417: x11+x21 <=1 
C418: x11+x22-y11_22 <=1 
C419: x11+x23 <=1 
C420: x11+x24 <=1 
C421: x11+x26 <=1 
C422: x11+x27-y11_27 <=1 
C423: x11+x28-y11_28 <=1 
C424: x11+x29 <=1 
C425: x11+x31 <=1 
C426: x11+x33 <=1 
C427: x11+x34 <=1 
C428: x11+x36-y11_36 <=1 
C429: x11+x37-y11_37 <=1 
C430: x11+x38-y11_38 <=1 
C431: x11+x39 <=1 
C432: x11+x42-y11_42 <=1 
C433: x11+x43 <=1 
C434: x11+x45-y11_45 <=1 
C435: x11+x46 <=1 
C436: x11+x47 <=1 
C437: x11+x48 <=1 
C438: x11+x49-y11_49 <=1 
C439: x11+x50 <=1 
C440: x11+x51 <=1 
C441: x11+x53-y11_53 <=1 
C442: x11+x54-y11_54 <=1 
C443: x11+x55 <=1 
C444: x11+x56 <=1 
C445: x11+x57 <=1 
C446: x11+x58-y11_58 <=1 
C447: x11+x60-y11_60 <=1 
C448: x11+x61 <=1 
C449: x11+x63-y11_63 <=1 
C450: x11+x66-y11_66 <=1 
C451: x12+x14 <=1 
C452: x12+x15 <=1 
C453: x12+x17 <=1 
C454: x12+x19-y12_19 <=1 
C455: x12+x21-y12_21 <=1 
C456: x12+x26-y12_26 <=1 
C457: x12+x28 <=1 
C458: x12+x29 <=1 
C459: x12+x30-y12_30 <=1 
C460: x12+x32-y12_32 <=1 
C461: x12+x33 <=1 
C462: x12+x36 <=1 
C463: x12+x39 <=1 
C464: x12+x41-y12_41 <=1 
C465: x12+x43-y12_43 <=1 
C466: x12+x44-y12_44 <=1 
C467: x12+x47 <=1 
C468: x12+x48-y12_48 <=1 
C469: x12+x51 <=1 
C470: x12+x52-y12_52 <=1 
C471: x12+x53 <=1 
C472: x12+x56-y12_56 <=1 
C473: x12+x59-y12_59 <=1 
C474: x12+x60 <=1 
C475: x12+x62-y12_62 <=1 
C476: x12+x63-y12_63 <=1 
C477: x12+x65-y12_65 <=1 
C478: x13+x16 <=1 
C479: x13+x17 <=1 
C480: x13+x20 <=1 
C481: x13+x21 <=1 
C482: x13+x22 <=1 
C483: x13+x23 <=1 
C484: x13+x26-y13_26 <=1 
C485: x13+x27 <=1 
C486: x13+x28 <=1 
C487: x13+x29 <=1 
C488: x13+x30 <=1 
C489: x13+x31 <=1 
C490: x13+x32-y13_32 <=1 
C491: x13+x33 <=1 
C492: x13+x34-y13_34 <=1 
C493: x13+x37-y13_37 <=1 
C494: x13+x38-y13_38 <=1 
C495: x13+x42-y13_42 <=1 
C496: x13+x43 <=1 
C497: x13+x44-y13_44 <=1 
C498: x13+x45 <=1 
C499: x13+x46 <=1 
C500: x13+x48-y13_48 <=1 
C501: x13+x49 <=1 
C502: x13+x52 <=1 
C503: x13+x53 <=1 
C504: x13+x54 <=1 
C505: x13+x60-y13_60 <=1 
C506: x13+x61-y13_61 <=1 
C507: x13+x62-y13_62 <=1 
C508: x14+x19 <=1 
C509: x14+x20-y14_20 <=1 
C510: x14+x21-y14_21 <=1 
C511: x14+x22 <=1 
C512: x14+x24-y14_24 <=1 
C513: x14+x27 <=1 
C514: x14+x28-y14_28 <=1 
C515: x14+x29 <=1 
C516: x14+x32 <=1 
C517: x14+x33 <=1 
C518: x14+x35-y14_35 <=1 
C519: x14+x36-y14_36 <=1 
C520: x14+x37-y14_37 <=1 
C521: x14+x41 <=1 
C522: x14+x43-y14_43 <=1 
C523: x14+x46-y14_46 <=1 
C524: x14+x47 <=1 
C525: x14+x48-y14_48 <=1 
C526: x14+x49 <=1 
C527: x14+x50-y14_50 <=1 
C528: x14+x51 <=1 
C529: x14+x52-y14_52 <=1 
C530: x14+x54 <=1 
C531: x14+x55 <=1 
C532: x14+x58-y14_58 <=1 
C533: x14+x60-y14_60 <=1 
C534: x14+x63 <=1 
C535: x14+x64-y14_64 <=1 
C536: x14+x65-y14_65 <=1 
C537: x15+x19-y15_19 <=1 
C538: x15+x20-y15_20 <=1 
C539: x15+x21 <=1 
C540: x15+x22 <=1 
C541: x15+x24 <=1 
C542: x15+x25-y15_25 <=1 
C543: x15+x26-y15_26 <=1 
C544: x15+x27-y15_27 <=1 
C545: x15+x30 <=1 
C546: x15+x31-y15_31 <=1 
C547: x15+x32-y15_32 <=1 
C548: x15+x34-y15_34 <=1 
C549: x15+x37 <=1 
C550: x15+x40 <=1 
C551: x15+x41 <=1 
C552: x15+x43-y15_43 <=1 
C553: x15+x45 <=1 
C554: x15+x51 <=1 
C555: x15+x52-y15_52 <=1 
C556: x15+x56 <=1 
C557: x15+x57 <=1 
C558: x15+x59 <=1 
C559: x15+x60 <=1 
C560: x15+x61 <=1 
C561: x15+x62 <=1 
C562: x15+x63 <=1 
C563: x15+x64 <=1 
C564: x15+x65 <=1 
C565: x15+x66 <=1 
C566: x16+x17-y16_17 <=1 
C567: x16+x18-y16_18 <=1 
C568: x16+x19 <=1 
C569: x16+x20 <=1 
C570: x16+x21-y16_21 <=1 
C571: x16+x23-y16_23 <=1 
C572: x16+x25 <=1 
C573: x16+x26 <=1 
C574: x16+x27 <=1 
C575: x16+x28 <=1 
C576: x16+x29 <=1 
C577: x16+x31 <=1 
C578: x16+x35 <=1 
C579: x16+x36 <=1 
C580: x16+x37-y16_37 <=1 
C581: x16+x40 <=1 
C582: x16+x41-y16_41 <=1 
C583: x16+x43 <=1 
C584: x16+x44 <=1 
C585: x16+x45 <=1 
C586: x16+x46 <=1 
C587: x16+x47 <=1 
C588: x16+x49 <=1 
C589: x16+x52 <=1 
C590: x16+x53-y16_53 <=1 
C591: x16+x54-y16_54 <=1 
C592: x16+x56 <=1 
C593: x16+x57 <=1 
C594: x16+x58-y16_58 <=1 
C595: x16+x60-y16_60 <=1 
C596: x16+x62-y16_62 <=1 
C597: x16+x63 <=1 
C598: x16+x65 <=1 
C599: x16+x66-y16_66 <=1 
C600: x17+x20 <=1 
C601: x17+x21-y17_21 <=1 
C602: x17+x22-y17_22 <=1 
C603: x17+x24-y17_24 <=1 
C604: x17+x26 <=1 
C605: x17+x27-y17_27 <=1 
C606: x17+x28-y17_28 <=1 
C607: x17+x29 <=1 
C608: x17+x31-y17_31 <=1 
C609: x17+x32-y17_32 <=1 
C610: x17+x33-y17_33 <=1 
C611: x17+x34 <=1 
C612: x17+x35 <=1 
C613: x17+x36 <=1 
C614: x17+x37 <=1 
C615: x17+x38 <=1 
C616: x17+x39 <=1 
C617: x17+x41 <=1 
C618: x17+x43 <=1 
C619: x17+x44 <=1 
C620: x17+x46 <=1 
C621: x17+x49-y17_49 <=1 
C622: x17+x51 <=1 
C623: x17+x53-y17_53 <=1 
C624: x17+x54-y17_54 <=1 
C625: x17+x55-y17_55 <=1 
C626: x17+x57 <=1 
C627: x17+x58 <=1 
C628: x17+x60 <=1 
C629: x17+x61 <=1 
C630: x17+x62-y17_62 <=1 
C631: x17+x63-y17_63 <=1 
C632: x17+x65-y17_65 <=1 
C633: x18+x20 <=1 
C634: x18+x21-y18_21 <=1 
C635: x18+x22 <=1 
C636: x18+x23-y18_23 <=1 
C637: x18+x24 <=1 
C638: x18+x26 <=1 
C639: x18+x27-y18_27 <=1 
C640: x18+x28 <=1 
C641: x18+x30 <=1 
C642: x18+x31-y18_31 <=1 
C643: x18+x35-y18_35 <=1 
C644: x18+x37-y18_37 <=1 
C645: x18+x39 <=1 
C646: x18+x40 <=1 
C647: x18+x41 <=1 
C648: x18+x42 <=1 
C649: x18+x43 <=1 
C650: x18+x46 <=1 
C651: x18+x47-y18_47 <=1 
C652: x18+x50-y18_50 <=1 
C653: x18+x55-y18_55 <=1 
C654: x18+x56 <=1 
C655: x18+x58-y18_58 <=1 
C656: x18+x59-y18_59 <=1 
C657: x18+x60 <=1 
C658: x18+x61-y18_61 <=1 
C659: x18+x62 <=1 
C660: x18+x63-y18_63 <=1 
C661: x18+x64 <=1 
C662: x19+x20 <=1 
C663: x19+x22-y19_22 <=1 
C664: x19+x24-y19_24 <=1 
C665: x19+x27-y19_27 <=1 
C666: x19+x33-y19_33 <=1 
C667: x19+x34-y19_34 <=1 
C668: x19+x35-y19_35 <=1 
C669: x19+x36-y19_36 <=1 
C670: x19+x39-y19_39 <=1 
C671: x19+x40 <=1 
C672: x19+x42-y19_42 <=1 
C673: x19+x43 <=1 
C674: x19+x48-y19_48 <=1 
C675: x19+x50 <=1 
C676: x19+x53-y19_53 <=1 
C677: x19+x54 <=1 
C678: x19+x55 <=1 
C679: x19+x56-y19_56 <=1 
C680: x19+x57 <=1 
C681: x19+x58 <=1 
C682: x19+x60 <=1 
C683: x19+x61-y19_61 <=1 
C684: x19+x62-y19_62 <=1 
C685: x19+x66-y19_66 <=1 
C686: x20+x21 <=1 
C687: x20+x24 <=1 
C688: x20+x25 <=1 
C689: x20+x26-y20_26 <=1 
C690: x20+x28 <=1 
C691: x20+x30-y20_30 <=1 
C692: x20+x31-y20_31 <=1 
C693: x20+x37 <=1 
C694: x20+x38 <=1 
C695: x20+x39 <=1 
C696: x20+x41-y20_41 <=1 
C697: x20+x42 <=1 
C698: x20+x44 <=1 
C699: x20+x45-y20_45 <=1 
C700: x20+x46 <=1 
C701: x20+x48-y20_48 <=1 
C702: x20+x49 <=1 
C703: x20+x50-y20_50 <=1 
C704: x20+x51 <=1 
C705: x20+x53 <=1 
C706: x20+x54 <=1 
C707: x20+x55 <=1 
C708: x20+x56 <=1 
C709: x20+x57 <=1 
C710: x20+x59 <=1 
C711: x20+x63 <=1 
C712: x20+x64-y20_64 <=1 
C713: x21+x22 <=1 
C714: x21+x29-y21_29 <=1 
C715: x21+x30 <=1 
C716: x21+x31-y21_31 <=1 
C717: x21+x32-y21_32 <=1 
C718: x21+x33-y21_33 <=1 
C719: x21+x34 <=1 
C720: x21+x35 <=1 
C721: x21+x36 <=1 
C722: x21+x38 <=1 
C723: x21+x39-y21_39 <=1 
C724: x21+x40 <=1 
C725: x21+x41 <=1 
C726: x21+x42 <=1 
C727: x21+x43 <=1 
C728: x21+x45 <=1 
C729: x21+x46 <=1 
C730: x21+x47 <=1 
C731: x21+x48 <=1 
C732: x21+x50 <=1 
C733: x21+x52 <=1 
C734: x21+x53-y21_53 <=1 
C735: x21+x55-y21_55 <=1 
C736: x21+x58 <=1 
C737: x21+x59 <=1 
C738: x21+x60-y21_60 <=1 
C739: x21+x61-y21_61 <=1 
C740: x21+x62-y21_62 <=1 
C741: x21+x63 <=1 
C742: x21+x64 <=1 
C743: x21+x65 <=1 
C744: x22+x24 <=1 
C745: x22+x25 <=1 
C746: x22+x26 <=1 
C747: x22+x27 <=1 
C748: x22+x28 <=1 
C749: x22+x30-y22_30 <=1 
C750: x22+x31-y22_31 <=1 
C751: x22+x32-y22_32 <=1 
C752: x22+x33-y22_33 <=1 
C753: x22+x34 <=1 
C754: x22+x37-y22_37 <=1 
C755: x22+x39 <=1 
C756: x22+x42-y22_42 <=1 
C757: x22+x44-y22_44 <=1 
C758: x22+x46-y22_46 <=1 
C759: x22+x50-y22_50 <=1 
C760: x22+x51-y22_51 <=1 
C761: x22+x55 <=1 
C762: x22+x56 <=1 
C763: x22+x57 <=1 
C764: x22+x60 <=1 
C765: x22+x63 <=1 
C766: x22+x64-y22_64 <=1 
C767: x22+x65 <=1 
C768: x22+x66-y22_66 <=1 
C769: x23+x27-y23_27 <=1 
C770: x23+x28 <=1 
C771: x23+x31-y23_31 <=1 
C772: x23+x33-y23_33 <=1 
C773: x23+x35 <=1 
C774: x23+x37-y23_37 <=1 
C775: x23+x38-y23_38 <=1 
C776: x23+x39-y23_39 <=1 
C777: x23+x40-y23_40 <=1 
C778: x23+x41 <=1 
C779: x23+x43 <=1 
C780: x23+x44-y23_44 <=1 
C781: x23+x45-y23_45 <=1 
C782: x23+x47 <=1 
C783: x23+x48-y23_48 <=1 
C784: x23+x50-y23_50 <=1 
C785: x23+x52 <=1 
C786: x23+x54-y23_54 <=1 
C787: x23+x56-y23_56 <=1 
C788: x23+x57 <=1 
C789: x23+x61 <=1 
C790: x23+x62 <=1 
C791: x23+x65 <=1 
C792: x24+x26-y24_26 <=1 
C793: x24+x27-y24_27 <=1 
C794: x24+x28-y24_28 <=1 
C795: x24+x30-y24_30 <=1 
C796: x24+x35-y24_35 <=1 
C797: x24+x39-y24_39 <=1 
C798: x24+x40 <=1 
C799: x24+x41-y24_41 <=1 
C800: x24+x42 <=1 
C801: x24+x44 <=1 
C802: x24+x45 <=1 
C803: x24+x47 <=1 
C804: x24+x50-y24_50 <=1 
C805: x24+x53-y24_53 <=1 
C806: x24+x56-y24_56 <=1 
C807: x24+x59-y24_59 <=1 
C808: x24+x61-y24_61 <=1 
C809: x24+x62-y24_62 <=1 
C810: x24+x63 <=1 
C811: x24+x65 <=1 
C812: x24+x66-y24_66 <=1 
C813: x25+x26-y25_26 <=1 
C814: x25+x27-y25_27 <=1 
C815: x25+x28 <=1 
C816: x25+x29-y25_29 <=1 
C817: x25+x32 <=1 
C818: x25+x33-y25_33 <=1 
C819: x25+x34 <=1 
C820: x25+x37 <=1 
C821: x25+x38 <=1 
C822: x25+x39-y25_39 <=1 
C823: x25+x40-y25_40 <=1 
C824: x25+x42 <=1 
C825: x25+x43-y25_43 <=1 
C826: x25+x44 <=1 
C827: x25+x45-y25_45 <=1 
C828: x25+x46-y25_46 <=1 
C829: x25+x47 <=1 
C830: x25+x49 <=1 
C831: x25+x51 <=1 
C832: x25+x52-y25_52 <=1 
C833: x25+x54 <=1 
C834: x25+x56 <=1 
C835: x25+x57-y25_57 <=1 
C836: x25+x58-y25_58 <=1 
C837: x25+x59 <=1 
C838: x25+x62-y25_62 <=1 
C839: x25+x63-y25_63 <=1 
C840: x25+x64-y25_64 <=1 
C841: x25+x65 <=1 
C842: x25+x66-y25_66 <=1 
C843: x26+x28-y26_28 <=1 
C844: x26+x30 <=1 
C845: x26+x31 <=1 
C846: x26+x39-y26_39 <=1 
C847: x26+x40-y26_40 <=1 
C848: x26+x45-y26_45 <=1 
C849: x26+x46-y26_46 <=1 
C850: x26+x47-y26_47 <=1 
C851: x26+x49 <=1 
C852: x26+x51-y26_51 <=1 
C853: x26+x52 <=1 
C854: x26+x55-y26_55 <=1 
C855: x26+x56-y26_56 <=1 
C856: x26+x57-y26_57 <=1 
C857: x26+x59 <=1 
C858: x26+x60 <=1 
C859: x26+x63 <=1 
C860: x26+x65 <=1 
C861: x26+x66-y26_66 <=1 
C862: x27+x28 <=1 
C863: x27+x29 <=1 
C864: x27+x30-y27_30 <=1 
C865: x27+x31 <=1 
C866: x27+x34 <=1 
C867: x27+x37 <=1 
C868: x27+x38-y27_38 <=1 
C869: x27+x39-y27_39 <=1 
C870: x27+x40 <=1 
C871: x27+x42-y27_42 <=1 
C872: x27+x43-y27_43 <=1 
C873: x27+x44 <=1 
C874: x27+x47 <=1 
C875: x27+x49-y27_49 <=1 
C876: x27+x52 <=1 
C877: x27+x53-y27_53 <=1 
C878: x27+x54-y27_54 <=1 
C879: x27+x57-y27_57 <=1 
C880: x27+x58 <=1 
C881: x27+x59 <=1 
C882: x27+x61 <=1 
C883: x27+x63 <=1 
C884: x27+x65-y27_65 <=1 
C885: x27+x66-y27_66 <=1 
C886: x28+x31 <=1 
C887: x28+x32 <=1 
C888: x28+x33-y28_33 <=1 
C889: x28+x34 <=1 
C890: x28+x35-y28_35 <=1 
C891: x28+x36 <=1 
C892: x28+x38 <=1 
C893: x28+x39-y28_39 <=1 
C894: x28+x41 <=1 
C895: x28+x42 <=1 
C896: x28+x44-y28_44 <=1 
C897: x28+x46 <=1 
C898: x28+x47 <=1 
C899: x28+x48 <=1 
C900: x28+x49 <=1 
C901: x28+x50-y28_50 <=1 
C902: x28+x58 <=1 
C903: x28+x60-y28_60 <=1 
C904: x28+x63 <=1 
C905: x28+x65-y28_65 <=1 
C906: x28+x66-y28_66 <=1 
C907: x29+x31 <=1 
C908: x29+x32 <=1 
C909: x29+x33 <=1 
C910: x29+x38 <=1 
C911: x29+x39 <=1 
C912: x29+x40-y29_40 <=1 
C913: x29+x42-y29_42 <=1 
C914: x29+x43 <=1 
C915: x29+x45 <=1 
C916: x29+x46 <=1 
C917: x29+x48-y29_48 <=1 
C918: x29+x49 <=1 
C919: x29+x50-y29_50 <=1 
C920: x29+x51 <=1 
C921: x29+x52-y29_52 <=1 
C922: x29+x54-y29_54 <=1 
C923: x29+x56 <=1 
C924: x29+x60-y29_60 <=1 
C925: x29+x61-y29_61 <=1 
C926: x29+x64-y29_64 <=1 
C927: x30+x31-y30_31 <=1 
C928: x30+x32-y30_32 <=1 
C929: x30+x33 <=1 
C930: x30+x35-y30_35 <=1 
C931: x30+x37 <=1 
C932: x30+x38 <=1 
C933: x30+x39 <=1 
C934: x30+x40 <=1 
C935: x30+x43-y30_43 <=1 
C936: x30+x44 <=1 
C937: x30+x45-y30_45 <=1 
C938: x30+x46 <=1 
C939: x30+x47 <=1 
C940: x30+x48 <=1 
C941: x30+x51 <=1 
C942: x30+x52-y30_52 <=1 
C943: x30+x53 <=1 
C944: x30+x54 <=1 
C945: x30+x56 <=1 
C946: x30+x59-y30_59 <=1 
C947: x30+x60 <=1 
C948: x30+x61-y30_61 <=1 
C949: x30+x62 <=1 
C950: x30+x65 <=1 
C951: x30+x66-y30_66 <=1 
C952: x31+x32-y31_32 <=1 
C953: x31+x35 <=1 
C954: x31+x39 <=1 
C955: x31+x40-y31_40 <=1 
C956: x31+x42 <=1 
C957: x31+x43 <=1 
C958: x31+x45-y31_45 <=1 
C959: x31+x46-y31_46 <=1 
C960: x31+x47-y31_47 <=1 
C961: x31+x49 <=1 
C962: x31+x51-y31_51 <=1 
C963: x31+x53-y31_53 <=1 
C964: x31+x56 <=1 
C965: x31+x61 <=1 
C966: x31+x62-y31_62 <=1 
C967: x31+x63 <=1 
C968: x31+x65-y31_65 <=1 
C969: x32+x33 <=1 
C970: x32+x35 <=1 
C971: x32+x36-y32_36 <=1 
C972: x32+x37-y32_37 <=1 
C973: x32+x39 <=1 
C974: x32+x41 <=1 
C975: x32+x44 <=1 
C976: x32+x45 <=1 
C977: x32+x46 <=1 
C978: x32+x47 <=1 
C979: x32+x48-y32_48 <=1 
C980: x32+x50-y32_50 <=1 
C981: x32+x51-y32_51 <=1 
C982: x32+x52-y32_52 <=1 
C983: x32+x53 <=1 
C984: x32+x54-y32_54 <=1 
C985: x32+x55-y32_55 <=1 
C986: x32+x57 <=1 
C987: x32+x59 <=1 
C988: x32+x60 <=1 
C989: x32+x61 <=1 
C990: x32+x62 <=1 
C991: x32+x63 <=1 
C992: x32+x64-y32_64 <=1 
C993: x32+x66 <=1 
C994: x33+x34 <=1 
C995: x33+x38-y33_38 <=1 
C996: x33+x41-y33_41 <=1 
C997: x33+x42-y33_42 <=1 
C998: x33+x45-y33_45 <=1 
C999: x33+x47-y33_47 <=1 
C1000: x33+x48 <=1 
C1001: x33+x50-y33_50 <=1 
C1002: x33+x52-y33_52 <=1 
C1003: x33+x53 <=1 
C1004: x33+x55-y33_55 <=1 
C1005: x33+x56 <=1 
C1006: x33+x57-y33_57 <=1 
C1007: x33+x60-y33_60 <=1 
C1008: x33+x63-y33_63 <=1 
C1009: x33+x64 <=1 
C1010: x33+x66 <=1 
C1011: x34+x36-y34_36 <=1 
C1012: x34+x37-y34_37 <=1 
C1013: x34+x39 <=1 
C1014: x34+x41 <=1 
C1015: x34+x42-y34_42 <=1 
C1016: x34+x45 <=1 
C1017: x34+x46 <=1 
C1018: x34+x47 <=1 
C1019: x34+x50 <=1 
C1020: x34+x51 <=1 
C1021: x34+x52 <=1 
C1022: x34+x53-y34_53 <=1 
C1023: x34+x54 <=1 
C1024: x34+x55 <=1 
C1025: x34+x56 <=1 
C1026: x34+x57-y34_57 <=1 
C1027: x34+x58-y34_58 <=1 
C1028: x34+x59 <=1 
C1029: x34+x60 <=1 
C1030: x34+x62 <=1 
C1031: x34+x64-y34_64 <=1 
C1032: x34+x65-y34_65 <=1 
C1033: x35+x36-y35_36 <=1 
C1034: x35+x37 <=1 
C1035: x35+x39 <=1 
C1036: x35+x40-y35_40 <=1 
C1037: x35+x43 <=1 
C1038: x35+x44 <=1 
C1039: x35+x49 <=1 
C1040: x35+x51 <=1 
C1041: x35+x52-y35_52 <=1 
C1042: x35+x53 <=1 
C1043: x35+x54 <=1 
C1044: x35+x57 <=1 
C1045: x35+x58-y35_58 <=1 
C1046: x35+x59 <=1 
C1047: x35+x63-y35_63 <=1 
C1048: x35+x64-y35_64 <=1 
C1049: x36+x37 <=1 
C1050: x36+x38 <=1 
C1051: x36+x40 <=1 
C1052: x36+x41-y36_41 <=1 
C1053: x36+x43 <=1 
C1054: x36+x44 <=1 
C1055: x36+x45-y36_45 <=1 
C1056: x36+x46 <=1 
C1057: x36+x47-y36_47 <=1 
C1058: x36+x48 <=1 
C1059: x36+x49-y36_49 <=1 
C1060: x36+x52-y36_52 <=1 
C1061: x36+x53-y36_53 <=1 
C1062: x36+x57 <=1 
C1063: x36+x60 <=1 
C1064: x37+x38-y37_38 <=1 
C1065: x37+x39-y37_39 <=1 
C1066: x37+x42 <=1 
C1067: x37+x44-y37_44 <=1 
C1068: x37+x46-y37_46 <=1 
C1069: x37+x49-y37_49 <=1 
C1070: x37+x50-y37_50 <=1 
C1071: x37+x53-y37_53 <=1 
C1072: x37+x55-y37_55 <=1 
C1073: x37+x56-y37_56 <=1 
C1074: x37+x57 <=1 
C1075: x37+x59 <=1 
C1076: x37+x60-y37_60 <=1 
C1077: x37+x63-y37_63 <=1 
C1078: x37+x66 <=1 
C1079: x38+x39 <=1 
C1080: x38+x40-y38_40 <=1 
C1081: x38+x42 <=1 
C1082: x38+x43-y38_43 <=1 
C1083: x38+x44 <=1 
C1084: x38+x45 <=1 
C1085: x38+x47 <=1 
C1086: x38+x50-y38_50 <=1 
C1087: x38+x51 <=1 
C1088: x38+x52 <=1 
C1089: x38+x56 <=1 
C1090: x38+x57-y38_57 <=1 
C1091: x38+x58 <=1 
C1092: x38+x59-y38_59 <=1 
C1093: x38+x61 <=1 
C1094: x38+x62 <=1 
C1095: x38+x64 <=1 
C1096: x38+x66 <=1 
C1097: x39+x42 <=1 
C1098: x39+x45 <=1 
C1099: x39+x46-y39_46 <=1 
C1100: x39+x47 <=1 
C1101: x39+x48 <=1 
C1102: x39+x50 <=1 
C1103: x39+x51 <=1 
C1104: x39+x52 <=1 
C1105: x39+x53 <=1 
C1106: x39+x56-y39_56 <=1 
C1107: x39+x57-y39_57 <=1 
C1108: x39+x58-y39_58 <=1 
C1109: x39+x59 <=1 
C1110: x39+x60 <=1 
C1111: x39+x61-y39_61 <=1 
C1112: x39+x64-y39_64 <=1 
C1113: x39+x65-y39_65 <=1 
C1114: x40+x41 <=1 
C1115: x40+x42 <=1 
C1116: x40+x43 <=1 
C1117: x40+x44-y40_44 <=1 
C1118: x40+x49-y40_49 <=1 
C1119: x40+x50-y40_50 <=1 
C1120: x40+x51 <=1 
C1121: x40+x52 <=1 
C1122: x40+x53 <=1 
C1123: x40+x54 <=1 
C1124: x40+x58-y40_58 <=1 
C1125: x40+x60 <=1 
C1126: x40+x61-y40_61 <=1 
C1127: x40+x63 <=1 
C1128: x40+x64-y40_64 <=1 
C1129: x40+x65-y40_65 <=1 
C1130: x40+x66 <=1 
C1131: x41+x42 <=1 
C1132: x41+x43-y41_43 <=1 
C1133: x41+x44-y41_44 <=1 
C1134: x41+x46-y41_46 <=1 
C1135: x41+x47 <=1 
C1136: x41+x49 <=1 
C1137: x41+x50-y41_50 <=1 
C1138: x41+x54-y41_54 <=1 
C1139: x41+x55-y41_55 <=1 
C1140: x41+x57-y41_57 <=1 
C1141: x41+x58 <=1 
C1142: x41+x60-y41_60 <=1 
C1143: x41+x61 <=1 
C1144: x41+x62-y41_62 <=1 
C1145: x41+x63-y41_63 <=1 
C1146: x41+x64 <=1 
C1147: x42+x43 <=1 
C1148: x42+x44 <=1 
C1149: x42+x45-y42_45 <=1 
C1150: x42+x46-y42_46 <=1 
C1151: x42+x48-y42_48 <=1 
C1152: x42+x49 <=1 
C1153: x42+x50-y42_50 <=1 
C1154: x42+x51-y42_51 <=1 
C1155: x42+x53-y42_53 <=1 
C1156: x42+x54 <=1 
C1157: x42+x55-y42_55 <=1 
C1158: x42+x59-y42_59 <=1 
C1159: x42+x60-y42_60 <=1 
C1160: x42+x64-y42_64 <=1 
C1161: x42+x65-y42_65 <=1 
C1162: x42+x66 <=1 
C1163: x43+x44 <=1 
C1164: x43+x45 <=1 
C1165: x43+x46-y43_46 <=1 
C1166: x43+x48-y43_48 <=1 
C1167: x43+x49-y43_49 <=1 
C1168: x43+x52-y43_52 <=1 
C1169: x43+x53-y43_53 <=1 
C1170: x43+x54 <=1 
C1171: x43+x58 <=1 
C1172: x43+x59-y43_59 <=1 
C1173: x43+x61 <=1 
C1174: x43+x63-y43_63 <=1 
C1175: x43+x65 <=1 
C1176: x43+x66 <=1 
C1177: x44+x45-y44_45 <=1 
C1178: x44+x46-y44_46 <=1 
C1179: x44+x48-y44_48 <=1 
C1180: x44+x50 <=1 
C1181: x44+x51 <=1 
C1182: x44+x53-y44_53 <=1 
C1183: x44+x54-y44_54 <=1 
C1184: x44+x55 <=1 
C1185: x44+x56-y44_56 <=1 
C1186: x44+x58-y44_58 <=1 
C1187: x44+x59 <=1 
C1188: x44+x60 <=1 
C1189: x44+x63-y44_63 <=1 
C1190: x44+x64-y44_64 <=1 
C1191: x44+x66-y44_66 <=1 
C1192: x45+x48 <=1 
C1193: x45+x50-y45_50 <=1 
C1194: x45+x51 <=1 
C1195: x45+x54-y45_54 <=1 
C1196: x45+x55-y45_55 <=1 
C1197: x45+x56-y45_56 <=1 
C1198: x45+x57 <=1 
C1199: x45+x58-y45_58 <=1 
C1200: x45+x61-y45_61 <=1 
C1201: x45+x62 <=1 
C1202: x45+x63-y45_63 <=1 
C1203: x45+x64 <=1 
C1204: x45+x66 <=1 
C1205: x46+x49 <=1 
C1206: x46+x50 <=1 
C1207: x46+x52 <=1 
C1208: x46+x53-y46_53 <=1 
C1209: x46+x54 <=1 
C1210: x46+x59-y46_59 <=1 
C1211: x46+x60-y46_60 <=1 
C1212: x46+x62-y46_62 <=1 
C1213: x46+x63-y46_63 <=1 
C1214: x46+x65-y46_65 <=1 
C1215: x46+x66-y46_66 <=1 
C1216: x47+x50 <=1 
C1217: x47+x51 <=1 
C1218: x47+x52-y47_52 <=1 
C1219: x47+x53 <=1 
C1220: x47+x55-y47_55 <=1 
C1221: x47+x56 <=1 
C1222: x47+x64-y47_64 <=1 
C1223: x47+x66-y47_66 <=1 
C1224: x48+x51 <=1 
C1225: x48+x52-y48_52 <=1 
C1226: x48+x56 <=1 
C1227: x48+x57 <=1 
C1228: x48+x59 <=1 
C1229: x48+x61 <=1 
C1230: x48+x63-y48_63 <=1 
C1231: x48+x64 <=1 
C1232: x48+x65-y48_65 <=1 
C1233: x48+x66-y48_66 <=1 
C1234: x49+x50 <=1 
C1235: x49+x51 <=1 
C1236: x49+x52-y49_52 <=1 
C1237: x49+x53 <=1 
C1238: x49+x54 <=1 
C1239: x49+x55 <=1 
C1240: x49+x58 <=1 
C1241: x49+x62 <=1 
C1242: x49+x63 <=1 
C1243: x49+x65 <=1 
C1244: x50+x51 <=1 
C1245: x50+x55 <=1 
C1246: x50+x57 <=1 
C1247: x50+x60-y50_60 <=1 
C1248: x50+x62-y50_62 <=1 
C1249: x50+x64 <=1 
C1250: x50+x65 <=1 
C1251: x50+x66-y50_66 <=1 
C1252: x51+x54-y51_54 <=1 
C1253: x51+x55 <=1 
C1254: x51+x56-y51_56 <=1 
C1255: x51+x57 <=1 
C1256: x51+x59-y51_59 <=1 
C1257: x51+x61 <=1 
C1258: x51+x63 <=1 
C1259: x52+x53 <=1 
C1260: x52+x54-y52_54 <=1 
C1261: x52+x56 <=1 
C1262: x52+x57-y52_57 <=1 
C1263: x52+x58 <=1 
C1264: x52+x60 <=1 
C1265: x52+x61 <=1 
C1266: x52+x63-y52_63 <=1 
C1267: x52+x65-y52_65 <=1 
C1268: x52+x66 <=1 
C1269: x53+x56 <=1 
C1270: x53+x57-y53_57 <=1 
C1271: x53+x60 <=1 
C1272: x53+x62-y53_62 <=1 
C1273: x53+x63 <=1 
C1274: x53+x64-y53_64 <=1 
C1275: x53+x65-y53_65 <=1 
C1276: x54+x56-y54_56 <=1 
C1277: x54+x59-y54_59 <=1 
C1278: x54+x62-y54_62 <=1 
C1279: x54+x65 <=1 
C1280: x54+x66 <=1 
C1281: x55+x57-y55_57 <=1 
C1282: x55+x59 <=1 
C1283: x55+x60 <=1 
C1284: x55+x61 <=1 
C1285: x55+x62-y55_62 <=1 
C1286: x55+x63-y55_63 <=1 
C1287: x55+x65-y55_65 <=1 
C1288: x55+x66 <=1 
C1289: x56+x59 <=1 
C1290: x56+x61-y56_61 <=1 
C1291: x56+x62 <=1 
C1292: x56+x64 <=1 
C1293: x56+x65 <=1 
C1294: x57+x59-y57_59 <=1 
C1295: x57+x60-y57_60 <=1 
C1296: x57+x61-y57_61 <=1 
C1297: x57+x62 <=1 
C1298: x57+x64 <=1 
C1299: x57+x65 <=1 
C1300: x57+x66 <=1 
C1301: x58+x59-y58_59 <=1 
C1302: x58+x60 <=1 
C1303: x58+x61-y58_61 <=1 
C1304: x58+x62-y58_62 <=1 
C1305: x58+x63 <=1 
C1306: x58+x65 <=1 
C1307: x59+x61-y59_61 <=1 
C1308: x59+x63 <=1 
C1309: x59+x64 <=1 
C1310: x59+x65-y59_65 <=1 
C1311: x60+x61-y60_61 <=1 
C1312: x60+x64-y60_64 <=1 
C1313: x60+x66 <=1 
C1314: x61+x62-y61_62 <=1 
C1315: x61+x64-y61_64 <=1 
C1316: x62+x63-y62_63 <=1 
C1317: x62+x64-y62_64 <=1 
C1318: x62+x65 <=1 
C1319: x62+x66 <=1 
C1320: x63+x64-y63_64 <=1 
C1321: x63+x65-y63_65 <=1 
C1322: x63+x66-y63_66 <=1 
C1323: x64+x66 <=1 

binary
x0
x1
x2
x3
x4
x5
x6
x7
x8
x9
x10
x11
x12
x13
x14
x15
x16
x17
x18
x19
x20
x21
x22
x23
x24
x25
x26
x27
x28
x29
x30
x31
x32
x33
x34
x35
x36
x37
x38
x39
x40
x41
x42
x43
x44
x45
x46
x47
x48
x49
x50
x51
x52
x53
x54
x55
x56
x57
x58
x59
x60
x61
x62
x63
x64
x65
x66
