problem_generation/data/GISP/train/er_n=67_m=1323_p=0.60_SET2_setparam=100.00_alpha=0.50_317.sol
objective value:                                 1174
x0                                                  1 	(obj:100)
x4                                                  1 	(obj:100)
x13                                                 1 	(obj:100)
x14                                                 1 	(obj:100)
x25                                                 1 	(obj:100)
x26                                                 1 	(obj:100)
x35                                                 1 	(obj:100)
x40                                                 1 	(obj:100)
x48                                                 1 	(obj:100)
x50                                                 1 	(obj:100)
x58                                                 1 	(obj:100)
x62                                                 1 	(obj:100)
y40_50                                              1 	(obj:-1)
y40_58                                              1 	(obj:-1)
y58_62                                              1 	(obj:-1)
y50_62                                              1 	(obj:-1)
y35_40                                              1 	(obj:-1)
y35_58                                              1 	(obj:-1)
y13_26                                              1 	(obj:-1)
y0_50                                               1 	(obj:-1)
y0_4                                                1 	(obj:-1)
y0_40                                               1 	(obj:-1)
y14_50                                              1 	(obj:-1)
y0_35                                               1 	(obj:-1)
y14_35                                              1 	(obj:-1)
y25_40                                              1 	(obj:-1)
y13_62                                              1 	(obj:-1)
y25_26                                              1 	(obj:-1)
y13_48                                              1 	(obj:-1)
y0_58                                               1 	(obj:-1)
y4_50                                               1 	(obj:-1)
y14_58                                              1 	(obj:-1)
y4_13                                               1 	(obj:-1)
y4_40                                               1 	(obj:-1)
y25_58                                              1 	(obj:-1)
y14_48                                              1 	(obj:-1)
y26_40                                              1 	(obj:-1)
y25_62                                              1 	(obj:-1)
